(declare-const Bracket_1 Real)
(declare-const Bracket_2 Real)
(declare-const Bracket_3 Real)
(declare-const Bracket_4 Real)
(declare-const Bracket_5 Real)
(declare-const Bracket_6 Real)
(declare-const FinalTaxes Real)
(declare-const Income Real)

(assert (=> (<= Income 60000) (= Bracket_1 (* 0.08 Income))))
(assert (=> (> Income 60000) (= Bracket_1 (* 0.08 60000))))
(assert (=> (<= Income 60000) (= Bracket_2 0)))
(assert (=> (and (> Income 60000) (<= Income 151234)) (= Bracket_2 (* 0.10 (- Income 60000)))))
(assert (=> (> Income 151234) (= Bracket_2 (* 0.10 (- 151234 60000)))))
(assert (=> (<= Income 151234) (= Bracket_3 0)))
(assert (=> (and (> Income 151234) (<= Income 181481)) (= Bracket_3 (* 0.12 (- Income 151234)))))
(assert (=> (> Income 181481) (= Bracket_3 (* 0.12 (- 181481 151234)))))
(assert (=> (<= Income 181481) (= Bracket_4 0)))
(assert (=> (and (> Income 181481) (<= Income 241974)) (= Bracket_4 (* 0.13 (- Income 181481)))))
(assert (=> (> Income 241974) (= Bracket_4 (* 0.13 (- 241974 181481)))))
(assert (=> (<= Income 241974) (= Bracket_5 0)))
(assert (=> (and (> Income 241974) (<= Income 362961)) (= Bracket_5 (* 0.14 (- Income 241974)))))
(assert (=> (> Income 362961) (= Bracket_5 (* 0.14 (- 362961 241974)))))
(assert (=> (<= Income 362961) (= Bracket_6 0)))
(assert (=> (> Income 362961) (= Bracket_6 (* 0.15 (- Income 362961)))))
(assert (= FinalTaxes (+ Bracket_1 Bracket_2 Bracket_3 Bracket_4 Bracket_5 Bracket_6)))
